212 5
10 10 10 10 10 

0 0 0 0 0 0 1 2 
0 0 0 0 0 0 3 3 8 10 
2 0 0 0 0 1 1 4 
8 0 0 0 0 4 1 5 
10 0 0 0 0 2 2 12 6 
7 0 0 0 0 3 1 7 
9 0 0 0 0 2 1 9 
10 0 0 0 0 2 1 9 
9 0 0 0 0 3 1 11 
7 0 0 0 0 4 1 11 
7 0 0 0 0 3 1 13 
4 0 0 0 0 1 1 13 
0 0 0 0 0 0 4 14 26 38 50 
0 0 0 0 0 0 3 15 16 27 
5 0 0 0 0 1 1 17 
5 0 0 0 0 1 1 17 
3 0 0 0 0 2 2 19 18 
10 0 0 0 0 1 1 20 
10 0 0 0 0 2 1 20 
6 0 0 0 0 6 1 21 
4 0 0 0 0 3 1 22 
4 0 0 0 0 4 2 24 23 
10 0 0 0 0 2 1 25 
7 0 0 0 0 3 1 25 
0 0 0 0 0 0 1 62 
0 0 0 0 0 0 3 27 29 34 
3 0 0 1 0 0 2 36 28 
8 0 0 3 0 0 1 30 
6 0 0 2 0 0 1 30 
8 0 0 2 0 0 1 31 
3 0 0 3 0 0 1 32 
9 0 0 3 0 0 2 33 139 
3 0 0 3 0 0 1 35 
9 0 0 2 0 0 1 35 
5 0 0 3 0 0 1 37 
8 0 0 3 0 0 1 37 
0 0 0 0 0 0 1 62 
0 0 0 0 0 0 2 39 45 
7 0 0 0 1 0 1 40 
10 0 0 0 2 0 2 47 41 
7 0 0 0 3 0 2 48 42 
7 0 0 0 2 0 2 43 210 
6 0 0 0 3 0 1 44 
2 0 0 0 1 0 1 46 
8 0 0 0 2 0 1 47 
9 0 0 0 2 0 1 49 
6 0 0 0 5 0 1 49 
10 0 0 0 4 0 1 49 
0 0 0 0 0 0 1 62 
0 0 0 0 0 0 2 51 53 
7 1 0 0 0 0 1 52 
1 1 0 0 0 0 2 60 54 
4 4 0 0 0 0 3 60 57 56 
9 2 0 0 0 0 1 55 
8 3 0 0 0 0 1 56 
7 3 0 0 0 0 1 58 
8 2 0 0 0 0 1 58 
7 1 0 0 0 0 1 59 
7 5 0 0 0 0 1 61 
6 3 0 0 0 0 1 61 
0 0 0 0 0 0 1 62 
0 0 0 0 0 0 5 63 75 97 119 141 
0 0 0 0 0 0 3 64 70 73 
9 0 0 0 0 1 2 72 65 
8 0 0 0 0 1 1 66 
8 0 0 0 0 1 1 67 
4 0 0 0 0 2 1 68 
2 0 0 0 0 3 1 69 
5 0 0 0 0 3 1 71 
2 0 0 0 0 3 1 72 
6 0 0 0 0 5 1 74 
10 0 0 0 0 3 1 74 
8 0 0 0 0 3 1 74 
0 0 0 0 0 0 2 163 175 
0 0 0 0 0 0 3 76 83 95 
10 1 1 0 0 0 1 77 
8 3 2 0 0 0 1 78 
7 2 2 0 0 0 1 79 
9 1 2 0 0 0 3 92 86 80 
6 1 3 0 0 0 1 81 
5 5 1 0 0 0 1 82 
1 1 1 0 0 0 2 94 84 
9 1 2 0 0 0 2 92 84 
7 2 2 0 0 0 1 85 
6 4 4 0 0 0 1 87 
3 3 2 0 0 0 1 87 
1 2 3 0 0 0 1 88 
10 2 2 0 0 0 1 89 
6 2 2 0 0 0 1 90 
1 4 3 0 0 0 1 91 
8 4 6 0 0 0 1 93 
4 4 3 0 0 0 1 93 
10 3 4 0 0 0 1 96 
9 3 3 0 0 0 1 96 
5 2 2 0 0 0 1 96 
0 0 0 0 0 0 1 187 
0 0 0 0 0 0 2 98 104 
2 1 0 0 1 0 1 99 
8 5 0 0 2 0 1 100 
3 2 0 0 2 0 1 101 
8 3 0 0 3 0 2 106 102 
8 2 0 0 4 0 1 103 
9 1 0 0 3 0 2 117 105 
3 1 0 0 1 0 1 105 
10 4 0 0 1 0 1 107 
3 3 0 0 1 0 1 107 
6 2 0 0 5 0 2 114 108 
6 4 0 0 3 0 1 109 
5 2 0 0 1 0 2 116 110 
3 1 0 0 3 0 1 111 
5 4 0 0 2 0 1 112 
2 1 0 0 4 0 1 113 
3 3 0 0 3 0 1 115 
3 2 0 0 3 0 1 116 
3 2 0 0 2 0 1 118 
3 3 0 0 3 0 1 118 
4 4 0 0 3 0 1 118 
0 0 0 0 0 0 1 187 
0 0 0 0 0 0 2 120 122 
4 1 1 0 0 0 1 121 
3 1 5 0 0 0 2 125 123 
10 2 1 0 0 0 2 125 123 
10 2 3 0 0 0 1 124 
10 2 3 0 0 0 2 128 126 
1 2 3 0 0 0 2 128 126 
4 2 1 0 0 0 2 131 127 
5 3 1 0 0 0 1 129 
3 4 3 0 0 0 1 129 
3 1 3 0 0 0 1 130 
2 1 3 0 0 0 1 132 
6 2 2 0 0 0 1 132 
1 3 3 0 0 0 1 133 
7 3 3 0 0 0 1 134 
5 5 4 0 0 0 1 135 
9 4 3 0 0 0 2 137 136 
3 2 3 0 0 0 1 138 
5 4 1 0 0 0 1 138 
8 2 2 0 0 0 1 139 
10 4 2 0 0 0 1 140 
0 0 0 0 0 0 1 187 
0 0 0 0 0 0 3 142 151 155 
1 1 0 0 0 1 1 143 
10 2 0 0 0 1 1 144 
6 1 0 0 0 3 1 145 
2 3 0 0 0 4 2 160 146 
10 1 0 0 0 2 1 147 
2 2 0 0 0 1 1 148 
8 2 0 0 0 2 2 159 149 
5 4 0 0 0 2 1 150 
2 1 0 0 0 5 1 152 
2 4 0 0 0 3 2 161 154 
1 2 0 0 0 3 1 153 
9 2 0 0 0 3 1 154 
9 5 0 0 0 2 1 156 
6 4 0 0 0 5 1 156 
9 3 0 0 0 4 1 157 
7 4 0 0 0 1 1 158 
1 3 0 0 0 2 1 162 
5 3 0 0 0 4 1 162 
4 1 0 0 0 1 1 162 
5 2 0 0 0 1 1 162 
0 0 0 0 0 0 1 187 
0 0 0 0 0 0 2 164 170 
4 0 0 1 0 0 1 165 
2 0 0 4 0 0 2 173 166 
1 0 0 2 0 0 1 167 
4 0 0 7 0 0 2 172 168 
4 0 0 3 0 0 1 169 
5 0 0 1 0 0 1 171 
4 0 0 1 0 0 1 173 
6 0 0 2 0 0 1 174 
2 0 0 2 0 0 1 174 
4 0 0 2 0 0 1 174 
0 0 0 0 0 0 1 187 
0 0 0 0 0 0 2 176 178 
2 1 0 0 0 0 2 182 177 
5 2 0 0 0 0 2 185 179 
5 2 0 0 0 0 3 185 182 181 
5 5 0 0 0 0 1 180 
8 2 0 0 0 0 1 181 
7 1 0 0 0 0 1 183 
6 2 0 0 0 0 1 183 
4 4 0 0 0 0 1 184 
3 3 0 0 0 0 1 186 
5 3 0 0 0 0 1 186 
0 0 0 0 0 0 1 187 
0 0 0 0 0 0 2 188 200 
0 0 0 0 0 0 2 189 191 
4 1 0 0 0 0 1 190 
3 2 0 0 0 0 1 192 
10 2 0 0 0 0 1 192 
4 4 0 0 0 0 1 193 
4 1 0 0 0 0 1 194 
8 2 0 0 0 0 2 196 195 
2 5 0 0 0 0 1 198 
5 2 0 0 0 0 1 197 
3 4 0 0 0 0 1 199 
10 2 0 0 0 0 1 199 
0 0 0 0 0 0 1 212 
0 0 0 0 0 0 3 201 204 206 
1 0 0 1 0 0 1 202 
7 0 0 4 0 0 1 203 
10 0 0 1 0 0 2 210 205 
7 0 0 3 0 0 2 210 208 
6 0 0 2 0 0 1 207 
2 0 0 3 0 0 1 207 
8 0 0 2 0 0 1 208 
5 0 0 1 0 0 1 209 
3 0 0 4 0 0 1 211 
4 0 0 4 0 0 1 211 
0 0 0 0 0 0 1 212 
0 0 0 0 0 0 0 
